p cnf 160 1086
1 5 9 13 0
17 21 25 29 0
33 37 41 45 0
49 53 57 61 0
65 69 73 77 0
81 85 89 93 0
97 101 105 109 0
113 117 121 125 0
2 6 10 14 0
18 22 26 30 0
34 38 42 46 0
50 54 58 62 0
66 70 74 78 0
82 86 90 94 0
98 102 106 110 0
114 118 122 126 0
3 7 11 15 0
19 23 27 31 0
35 39 43 47 0
51 55 59 63 0
67 71 75 79 0
83 87 91 95 0
99 103 107 111 0
115 119 123 127 0
4 8 12 16 0
20 24 28 32 0
36 40 44 48 0
52 56 60 64 0
68 72 76 80 0
84 88 92 96 0
100 104 108 112 0
116 120 124 128 0
-1 -5 0
-1 -9 0
-1 -13 0
-5 -9 0
-5 -13 0
-9 -13 0
-17 -21 0
-17 -25 0
-17 -29 0
-21 -25 0
-21 -29 0
-25 -29 0
-33 -37 0
-33 -41 0
-33 -45 0
-37 -41 0
-37 -45 0
-41 -45 0
-49 -53 0
-49 -57 0
-49 -61 0
-53 -57 0
-53 -61 0
-57 -61 0
-65 -69 0
-65 -73 0
-65 -77 0
-69 -73 0
-69 -77 0
-73 -77 0
-81 -85 0
-81 -89 0
-81 -93 0
-85 -89 0
-85 -93 0
-89 -93 0
-97 -101 0
-97 -105 0
-97 -109 0
-101 -105 0
-101 -109 0
-105 -109 0
-113 -117 0
-113 -121 0
-113 -125 0
-117 -121 0
-117 -125 0
-121 -125 0
-2 -6 0
-2 -10 0
-2 -14 0
-6 -10 0
-6 -14 0
-10 -14 0
-18 -22 0
-18 -26 0
-18 -30 0
-22 -26 0
-22 -30 0
-26 -30 0
-34 -38 0
-34 -42 0
-34 -46 0
-38 -42 0
-38 -46 0
-42 -46 0
-50 -54 0
-50 -58 0
-50 -62 0
-54 -58 0
-54 -62 0
-58 -62 0
-66 -70 0
-66 -74 0
-66 -78 0
-70 -74 0
-70 -78 0
-74 -78 0
-82 -86 0
-82 -90 0
-82 -94 0
-86 -90 0
-86 -94 0
-90 -94 0
-98 -102 0
-98 -106 0
-98 -110 0
-102 -106 0
-102 -110 0
-106 -110 0
-114 -118 0
-114 -122 0
-114 -126 0
-118 -122 0
-118 -126 0
-122 -126 0
-3 -7 0
-3 -11 0
-3 -15 0
-7 -11 0
-7 -15 0
-11 -15 0
-19 -23 0
-19 -27 0
-19 -31 0
-23 -27 0
-23 -31 0
-27 -31 0
-35 -39 0
-35 -43 0
-35 -47 0
-39 -43 0
-39 -47 0
-43 -47 0
-51 -55 0
-51 -59 0
-51 -63 0
-55 -59 0
-55 -63 0
-59 -63 0
-67 -71 0
-67 -75 0
-67 -79 0
-71 -75 0
-71 -79 0
-75 -79 0
-83 -87 0
-83 -91 0
-83 -95 0
-87 -91 0
-87 -95 0
-91 -95 0
-99 -103 0
-99 -107 0
-99 -111 0
-103 -107 0
-103 -111 0
-107 -111 0
-115 -119 0
-115 -123 0
-115 -127 0
-119 -123 0
-119 -127 0
-123 -127 0
-4 -8 0
-4 -12 0
-4 -16 0
-8 -12 0
-8 -16 0
-12 -16 0
-20 -24 0
-20 -28 0
-20 -32 0
-24 -28 0
-24 -32 0
-28 -32 0
-36 -40 0
-36 -44 0
-36 -48 0
-40 -44 0
-40 -48 0
-44 -48 0
-52 -56 0
-52 -60 0
-52 -64 0
-56 -60 0
-56 -64 0
-60 -64 0
-68 -72 0
-68 -76 0
-68 -80 0
-72 -76 0
-72 -80 0
-76 -80 0
-84 -88 0
-84 -92 0
-84 -96 0
-88 -92 0
-88 -96 0
-92 -96 0
-100 -104 0
-100 -108 0
-100 -112 0
-104 -108 0
-104 -112 0
-108 -112 0
-116 -120 0
-116 -124 0
-116 -128 0
-120 -124 0
-120 -128 0
-124 -128 0
1 2 3 4 0
5 6 7 8 0
9 10 11 12 0
13 14 15 16 0
17 18 19 20 0
21 22 23 24 0
25 26 27 28 0
29 30 31 32 0
33 34 35 36 0
37 38 39 40 0
41 42 43 44 0
45 46 47 48 0
49 50 51 52 0
53 54 55 56 0
57 58 59 60 0
61 62 63 64 0
65 66 67 68 0
69 70 71 72 0
73 74 75 76 0
77 78 79 80 0
81 82 83 84 0
85 86 87 88 0
89 90 91 92 0
93 94 95 96 0
97 98 99 100 0
101 102 103 104 0
105 106 107 108 0
109 110 111 112 0
113 114 115 116 0
117 118 119 120 0
121 122 123 124 0
125 126 127 128 0
-1 -5 0
-1 -9 0
-1 -13 0
-2 -6 0
-2 -10 0
-2 -14 0
-3 -7 0
-3 -11 0
-3 -15 0
-4 -8 0
-4 -12 0
-4 -16 0
-5 -9 0
-5 -13 0
-6 -10 0
-6 -14 0
-7 -11 0
-7 -15 0
-8 -12 0
-8 -16 0
-9 -13 0
-10 -14 0
-11 -15 0
-12 -16 0
-17 -21 0
-17 -25 0
-17 -29 0
-18 -22 0
-18 -26 0
-18 -30 0
-19 -23 0
-19 -27 0
-19 -31 0
-20 -24 0
-20 -28 0
-20 -32 0
-21 -25 0
-21 -29 0
-22 -26 0
-22 -30 0
-23 -27 0
-23 -31 0
-24 -28 0
-24 -32 0
-25 -29 0
-26 -30 0
-27 -31 0
-28 -32 0
-33 -37 0
-33 -41 0
-33 -45 0
-34 -38 0
-34 -42 0
-34 -46 0
-35 -39 0
-35 -43 0
-35 -47 0
-36 -40 0
-36 -44 0
-36 -48 0
-37 -41 0
-37 -45 0
-38 -42 0
-38 -46 0
-39 -43 0
-39 -47 0
-40 -44 0
-40 -48 0
-41 -45 0
-42 -46 0
-43 -47 0
-44 -48 0
-49 -53 0
-49 -57 0
-49 -61 0
-50 -54 0
-50 -58 0
-50 -62 0
-51 -55 0
-51 -59 0
-51 -63 0
-52 -56 0
-52 -60 0
-52 -64 0
-53 -57 0
-53 -61 0
-54 -58 0
-54 -62 0
-55 -59 0
-55 -63 0
-56 -60 0
-56 -64 0
-57 -61 0
-58 -62 0
-59 -63 0
-60 -64 0
-65 -69 0
-65 -73 0
-65 -77 0
-66 -70 0
-66 -74 0
-66 -78 0
-67 -71 0
-67 -75 0
-67 -79 0
-68 -72 0
-68 -76 0
-68 -80 0
-69 -73 0
-69 -77 0
-70 -74 0
-70 -78 0
-71 -75 0
-71 -79 0
-72 -76 0
-72 -80 0
-73 -77 0
-74 -78 0
-75 -79 0
-76 -80 0
-81 -85 0
-81 -89 0
-81 -93 0
-82 -86 0
-82 -90 0
-82 -94 0
-83 -87 0
-83 -91 0
-83 -95 0
-84 -88 0
-84 -92 0
-84 -96 0
-85 -89 0
-85 -93 0
-86 -90 0
-86 -94 0
-87 -91 0
-87 -95 0
-88 -92 0
-88 -96 0
-89 -93 0
-90 -94 0
-91 -95 0
-92 -96 0
-97 -101 0
-97 -105 0
-97 -109 0
-98 -102 0
-98 -106 0
-98 -110 0
-99 -103 0
-99 -107 0
-99 -111 0
-100 -104 0
-100 -108 0
-100 -112 0
-101 -105 0
-101 -109 0
-102 -106 0
-102 -110 0
-103 -107 0
-103 -111 0
-104 -108 0
-104 -112 0
-105 -109 0
-106 -110 0
-107 -111 0
-108 -112 0
-113 -117 0
-113 -121 0
-113 -125 0
-114 -118 0
-114 -122 0
-114 -126 0
-115 -119 0
-115 -123 0
-115 -127 0
-116 -120 0
-116 -124 0
-116 -128 0
-117 -121 0
-117 -125 0
-118 -122 0
-118 -126 0
-119 -123 0
-119 -127 0
-120 -124 0
-120 -128 0
-121 -125 0
-122 -126 0
-123 -127 0
-124 -128 0
-129 1 5 9 13 0
-133 17 21 25 29 0
-137 33 37 41 45 0
-141 49 53 57 61 0
-145 65 69 73 77 0
-149 81 85 89 93 0
-153 97 101 105 109 0
-157 113 117 121 125 0
-130 2 6 10 14 0
-134 18 22 26 30 0
-138 34 38 42 46 0
-142 50 54 58 62 0
-146 66 70 74 78 0
-150 82 86 90 94 0
-154 98 102 106 110 0
-158 114 118 122 126 0
-131 3 7 11 15 0
-135 19 23 27 31 0
-139 35 39 43 47 0
-143 51 55 59 63 0
-147 67 71 75 79 0
-151 83 87 91 95 0
-155 99 103 107 111 0
-159 115 119 123 127 0
-132 4 8 12 16 0
-136 20 24 28 32 0
-140 36 40 44 48 0
-144 52 56 60 64 0
-148 68 72 76 80 0
-152 84 88 92 96 0
-156 100 104 108 112 0
-160 116 120 124 128 0
-129 -130 -133 -134 0
-129 -130 -137 -138 0
-129 -130 -141 -142 0
-129 -130 -145 -146 0
-129 -130 -149 -150 0
-129 -130 -153 -154 0
-129 -130 -157 -158 0
-129 -131 -133 -135 0
-129 -131 -137 -139 0
-129 -131 -141 -143 0
-129 -131 -145 -147 0
-129 -131 -149 -151 0
-129 -131 -153 -155 0
-129 -131 -157 -159 0
-129 -132 -133 -136 0
-129 -132 -137 -140 0
-129 -132 -141 -144 0
-129 -132 -145 -148 0
-129 -132 -149 -152 0
-129 -132 -153 -156 0
-129 -132 -157 -160 0
-130 -131 -134 -135 0
-130 -131 -138 -139 0
-130 -131 -142 -143 0
-130 -131 -146 -147 0
-130 -131 -150 -151 0
-130 -131 -154 -155 0
-130 -131 -158 -159 0
-130 -132 -134 -136 0
-130 -132 -138 -140 0
-130 -132 -142 -144 0
-130 -132 -146 -148 0
-130 -132 -150 -152 0
-130 -132 -154 -156 0
-130 -132 -158 -160 0
-131 -132 -135 -136 0
-131 -132 -139 -140 0
-131 -132 -143 -144 0
-131 -132 -147 -148 0
-131 -132 -151 -152 0
-131 -132 -155 -156 0
-131 -132 -159 -160 0
-133 -134 -137 -138 0
-133 -134 -141 -142 0
-133 -134 -145 -146 0
-133 -134 -149 -150 0
-133 -134 -153 -154 0
-133 -134 -157 -158 0
-133 -135 -137 -139 0
-133 -135 -141 -143 0
-133 -135 -145 -147 0
-133 -135 -149 -151 0
-133 -135 -153 -155 0
-133 -135 -157 -159 0
-133 -136 -137 -140 0
-133 -136 -141 -144 0
-133 -136 -145 -148 0
-133 -136 -149 -152 0
-133 -136 -153 -156 0
-133 -136 -157 -160 0
-134 -135 -138 -139 0
-134 -135 -142 -143 0
-134 -135 -146 -147 0
-134 -135 -150 -151 0
-134 -135 -154 -155 0
-134 -135 -158 -159 0
-134 -136 -138 -140 0
-134 -136 -142 -144 0
-134 -136 -146 -148 0
-134 -136 -150 -152 0
-134 -136 -154 -156 0
-134 -136 -158 -160 0
-135 -136 -139 -140 0
-135 -136 -143 -144 0
-135 -136 -147 -148 0
-135 -136 -151 -152 0
-135 -136 -155 -156 0
-135 -136 -159 -160 0
-137 -138 -141 -142 0
-137 -138 -145 -146 0
-137 -138 -149 -150 0
-137 -138 -153 -154 0
-137 -138 -157 -158 0
-137 -139 -141 -143 0
-137 -139 -145 -147 0
-137 -139 -149 -151 0
-137 -139 -153 -155 0
-137 -139 -157 -159 0
-137 -140 -141 -144 0
-137 -140 -145 -148 0
-137 -140 -149 -152 0
-137 -140 -153 -156 0
-137 -140 -157 -160 0
-138 -139 -142 -143 0
-138 -139 -146 -147 0
-138 -139 -150 -151 0
-138 -139 -154 -155 0
-138 -139 -158 -159 0
-138 -140 -142 -144 0
-138 -140 -146 -148 0
-138 -140 -150 -152 0
-138 -140 -154 -156 0
-138 -140 -158 -160 0
-139 -140 -143 -144 0
-139 -140 -147 -148 0
-139 -140 -151 -152 0
-139 -140 -155 -156 0
-139 -140 -159 -160 0
-141 -142 -145 -146 0
-141 -142 -149 -150 0
-141 -142 -153 -154 0
-141 -142 -157 -158 0
-141 -143 -145 -147 0
-141 -143 -149 -151 0
-141 -143 -153 -155 0
-141 -143 -157 -159 0
-141 -144 -145 -148 0
-141 -144 -149 -152 0
-141 -144 -153 -156 0
-141 -144 -157 -160 0
-142 -143 -146 -147 0
-142 -143 -150 -151 0
-142 -143 -154 -155 0
-142 -143 -158 -159 0
-142 -144 -146 -148 0
-142 -144 -150 -152 0
-142 -144 -154 -156 0
-142 -144 -158 -160 0
-143 -144 -147 -148 0
-143 -144 -151 -152 0
-143 -144 -155 -156 0
-143 -144 -159 -160 0
-145 -146 -149 -150 0
-145 -146 -153 -154 0
-145 -146 -157 -158 0
-145 -147 -149 -151 0
-145 -147 -153 -155 0
-145 -147 -157 -159 0
-145 -148 -149 -152 0
-145 -148 -153 -156 0
-145 -148 -157 -160 0
-146 -147 -150 -151 0
-146 -147 -154 -155 0
-146 -147 -158 -159 0
-146 -148 -150 -152 0
-146 -148 -154 -156 0
-146 -148 -158 -160 0
-147 -148 -151 -152 0
-147 -148 -155 -156 0
-147 -148 -159 -160 0
-149 -150 -153 -154 0
-149 -150 -157 -158 0
-149 -151 -153 -155 0
-149 -151 -157 -159 0
-149 -152 -153 -156 0
-149 -152 -157 -160 0
-150 -151 -154 -155 0
-150 -151 -158 -159 0
-150 -152 -154 -156 0
-150 -152 -158 -160 0
-151 -152 -155 -156 0
-151 -152 -159 -160 0
-153 -154 -157 -158 0
-153 -155 -157 -159 0
-153 -156 -157 -160 0
-154 -155 -158 -159 0
-154 -156 -158 -160 0
-155 -156 -159 -160 0
-1 -5 0
-17 -21 0
-33 -37 0
-49 -53 0
-65 -69 0
-81 -85 0
-97 -101 0
-113 -117 0
-5 -9 0
-21 -25 0
-37 -41 0
-53 -57 0
-69 -73 0
-85 -89 0
-101 -105 0
-117 -121 0
-9 -13 0
-25 -29 0
-41 -45 0
-57 -61 0
-73 -77 0
-89 -93 0
-105 -109 0
-121 -125 0
-2 -5 0
-2 -6 0
-18 -21 0
-18 -22 0
-34 -37 0
-34 -38 0
-50 -53 0
-50 -54 0
-66 -69 0
-66 -70 0
-82 -85 0
-82 -86 0
-98 -101 0
-98 -102 0
-114 -117 0
-114 -118 0
-6 -9 0
-6 -10 0
-22 -25 0
-22 -26 0
-38 -41 0
-38 -42 0
-54 -57 0
-54 -58 0
-70 -73 0
-70 -74 0
-86 -89 0
-86 -90 0
-102 -105 0
-102 -106 0
-118 -121 0
-118 -122 0
-10 -13 0
-10 -14 0
-26 -29 0
-26 -30 0
-42 -45 0
-42 -46 0
-58 -61 0
-58 -62 0
-74 -77 0
-74 -78 0
-90 -93 0
-90 -94 0
-106 -109 0
-106 -110 0
-122 -125 0
-122 -126 0
-3 -5 0
-3 -6 0
-3 -7 0
-19 -21 0
-19 -22 0
-19 -23 0
-35 -37 0
-35 -38 0
-35 -39 0
-51 -53 0
-51 -54 0
-51 -55 0
-67 -69 0
-67 -70 0
-67 -71 0
-83 -85 0
-83 -86 0
-83 -87 0
-99 -101 0
-99 -102 0
-99 -103 0
-115 -117 0
-115 -118 0
-115 -119 0
-7 -9 0
-7 -10 0
-7 -11 0
-23 -25 0
-23 -26 0
-23 -27 0
-39 -41 0
-39 -42 0
-39 -43 0
-55 -57 0
-55 -58 0
-55 -59 0
-71 -73 0
-71 -74 0
-71 -75 0
-87 -89 0
-87 -90 0
-87 -91 0
-103 -105 0
-103 -106 0
-103 -107 0
-119 -121 0
-119 -122 0
-119 -123 0
-11 -13 0
-11 -14 0
-11 -15 0
-27 -29 0
-27 -30 0
-27 -31 0
-43 -45 0
-43 -46 0
-43 -47 0
-59 -61 0
-59 -62 0
-59 -63 0
-75 -77 0
-75 -78 0
-75 -79 0
-91 -93 0
-91 -94 0
-91 -95 0
-107 -109 0
-107 -110 0
-107 -111 0
-123 -125 0
-123 -126 0
-123 -127 0
-4 -5 0
-4 -6 0
-4 -7 0
-4 -8 0
-20 -21 0
-20 -22 0
-20 -23 0
-20 -24 0
-36 -37 0
-36 -38 0
-36 -39 0
-36 -40 0
-52 -53 0
-52 -54 0
-52 -55 0
-52 -56 0
-68 -69 0
-68 -70 0
-68 -71 0
-68 -72 0
-84 -85 0
-84 -86 0
-84 -87 0
-84 -88 0
-100 -101 0
-100 -102 0
-100 -103 0
-100 -104 0
-116 -117 0
-116 -118 0
-116 -119 0
-116 -120 0
-8 -9 0
-8 -10 0
-8 -11 0
-8 -12 0
-24 -25 0
-24 -26 0
-24 -27 0
-24 -28 0
-40 -41 0
-40 -42 0
-40 -43 0
-40 -44 0
-56 -57 0
-56 -58 0
-56 -59 0
-56 -60 0
-72 -73 0
-72 -74 0
-72 -75 0
-72 -76 0
-88 -89 0
-88 -90 0
-88 -91 0
-88 -92 0
-104 -105 0
-104 -106 0
-104 -107 0
-104 -108 0
-120 -121 0
-120 -122 0
-120 -123 0
-120 -124 0
-12 -13 0
-12 -14 0
-12 -15 0
-12 -16 0
-28 -29 0
-28 -30 0
-28 -31 0
-28 -32 0
-44 -45 0
-44 -46 0
-44 -47 0
-44 -48 0
-60 -61 0
-60 -62 0
-60 -63 0
-60 -64 0
-76 -77 0
-76 -78 0
-76 -79 0
-76 -80 0
-92 -93 0
-92 -94 0
-92 -95 0
-92 -96 0
-108 -109 0
-108 -110 0
-108 -111 0
-108 -112 0
-124 -125 0
-124 -126 0
-124 -127 0
-124 -128 0
-5 -21 0
-21 -37 0
-37 -53 0
-53 -69 0
-69 -85 0
-85 -101 0
-101 -117 0
-6 -21 0
-6 -22 0
-22 -37 0
-22 -38 0
-38 -53 0
-38 -54 0
-54 -69 0
-54 -70 0
-70 -85 0
-70 -86 0
-86 -101 0
-86 -102 0
-102 -117 0
-102 -118 0
-7 -21 0
-7 -22 0
-7 -23 0
-23 -37 0
-23 -38 0
-23 -39 0
-39 -53 0
-39 -54 0
-39 -55 0
-55 -69 0
-55 -70 0
-55 -71 0
-71 -85 0
-71 -86 0
-71 -87 0
-87 -101 0
-87 -102 0
-87 -103 0
-103 -117 0
-103 -118 0
-103 -119 0
-8 -21 0
-8 -22 0
-8 -23 0
-8 -24 0
-24 -37 0
-24 -38 0
-24 -39 0
-24 -40 0
-40 -53 0
-40 -54 0
-40 -55 0
-40 -56 0
-56 -69 0
-56 -70 0
-56 -71 0
-56 -72 0
-72 -85 0
-72 -86 0
-72 -87 0
-72 -88 0
-88 -101 0
-88 -102 0
-88 -103 0
-88 -104 0
-104 -117 0
-104 -118 0
-104 -119 0
-104 -120 0
